50
8990

125 434
192 324
112 965
450 193
663 595
654 954
150 756
397 694
481 376
369 132
273 370
160 922
209 109
447 831
642 19
469 878
244 294
97 635
306 489
459 290
425 16
264 329
461 588
93 446
25 725
641 595
940 533
247 253
141 228
699 750
698 161
541 171
525 652
189 690
38 649
333 605
481 548
175 726
716 435
906 856
325 722
864 931
281 863
944 487
214 983
213 632
242 504
389 171
160 378
710 2
